c uprop, v00.0, 
c reading from data/prog7.c.cnf
c done reading: 0.002367
p cnf 104 381
-58 -72 0
58 72 0
58 -78 0
-58 78 0
-63 72 0
-63 -64 0
63 64 -72 0
64 -68 -72 0
-64 -68 72 0
64 68 72 0
-64 68 -72 0
63 -71 0
-71 -74 0
-63 71 74 0
-63 74 -76 0
63 -74 -76 0
63 74 76 0
-63 -74 76 0
71 -77 0
-77 -79 0
-71 77 79 0
-71 79 -81 0
71 -79 -81 0
71 79 81 0
-71 -79 81 0
-60 77 0
-60 -61 0
60 61 -77 0
-56 61 -77 0
-56 -61 77 0
56 61 77 0
56 -61 -77 0
-55 60 0
-55 -66 0
55 -60 66 0
-54 -60 66 0
-54 60 -66 0
54 60 66 0
54 -60 -66 0
-53 55 0
-53 -69 0
53 -55 69 0
-52 -55 69 0
-52 55 -69 0
52 55 69 0
52 -55 -69 0
-51 74 0
51 -74 0
50 -58 -79 0
-50 58 79 0
-50 79 0
-50 58 0
-49 -50 79 0
-49 -50 58 0
-49 -50 0
49 50 -79 0
49 50 -58 0
-49 58 79 0
48 -61 -64 0
48 -50 -61 0
48 -50 -64 0
-48 61 64 0
-48 50 61 0
-48 50 64 0
-47 -48 61 0
-47 -48 64 0
-47 -48 50 0
47 48 -61 0
47 48 -64 0
47 48 -50 0
47 -50 -61 -64 0
-47 50 61 64 0
46 -66 -74 0
46 -48 -66 0
46 -48 -74 0
-46 66 74 0
-46 48 66 0
-46 48 74 0
-45 -46 66 0
-45 -46 74 0
-45 -46 48 0
45 46 -66 0
45 46 -74 0
45 46 -48 0
45 -48 -66 -74 0
-45 48 66 74 0
44 -69 -79 0
44 -46 -69 0
44 -46 -79 0
-44 69 79 0
-44 46 69 0
-44 46 79 0
-44 69 -82 0
-44 79 -82 0
-44 46 -82 0
44 -69 82 0
44 -79 82 0
44 -46 82 0
-46 -69 -79 82 0
46 69 79 -82 0
61 -83 0
44 -83 0
-44 -61 83 0
-44 -61 -84 0
44 61 -84 0
44 -61 84 0
-44 61 84 0
66 -85 0
83 -85 0
-66 -83 85 0
-66 -83 -86 0
66 83 -86 0
-66 83 86 0
66 -83 86 0
-59 69 0
-59 85 0
59 -69 -85 0
-65 -69 -85 0
-65 69 85 0
65 -69 85 0
65 69 -85 0
-58 -75 0
58 75 0
58 -80 0
-58 80 0
-62 75 0
-62 -64 0
62 64 -75 0
64 -67 -75 0
-64 -67 75 0
64 67 75 0
-64 67 -75 0
62 -70 0
-51 -70 0
51 -62 70 0
51 -62 -87 0
-51 62 -87 0
51 62 87 0
-51 -62 87 0
70 -89 0
-49 -89 0
49 -70 89 0
49 -70 -90 0
-49 70 -90 0
49 70 90 0
-49 -70 90 0
89 -91 0
-47 -91 0
47 -89 91 0
47 -89 -92 0
-47 89 -92 0
47 89 92 0
-47 -89 92 0
91 -93 0
-45 -93 0
45 -91 93 0
45 -91 -94 0
-45 91 -94 0
45 91 94 0
-45 -91 94 0
93 -95 0
-82 -95 0
82 -93 95 0
82 -93 -96 0
-82 93 -96 0
82 93 96 0
-82 -93 96 0
95 -97 0
-84 -97 0
84 -95 97 0
84 -95 -98 0
-84 95 -98 0
84 95 98 0
-84 -95 98 0
97 -99 0
-86 -99 0
86 -97 99 0
86 -97 -100 0
-86 97 -100 0
86 97 100 0
-86 -97 100 0
99 -101 0
-65 -101 0
65 -99 101 0
65 -99 -102 0
-65 99 -102 0
65 99 102 0
-65 -99 102 0
101 -103 0
-59 -103 0
59 -101 103 0
59 -101 -104 0
-59 101 -104 0
59 101 104 0
-59 -101 104 0
-43 -88 0
-42 -43 0
42 43 88 0
-41 42 88 0
-41 -42 -88 0
41 42 -88 0
41 -42 88 0
-40 43 0
-39 -40 0
39 40 -43 0
-38 39 -43 0
-38 -39 43 0
38 39 43 0
38 -39 -43 0
-37 40 0
-36 -37 0
36 37 -40 0
-35 36 -40 0
-35 -36 40 0
35 36 40 0
35 -36 -40 0
-34 37 0
-33 -34 0
33 34 -37 0
-32 33 -37 0
-32 -33 37 0
32 33 37 0
32 -33 -37 0
-31 34 0
-30 -31 0
30 31 -34 0
-29 30 -34 0
-29 -30 34 0
29 30 34 0
29 -30 -34 0
-28 31 0
-27 -28 0
27 28 -31 0
-26 27 -31 0
-26 -27 31 0
26 27 31 0
26 -27 -31 0
-25 28 0
-24 -25 0
24 25 -28 0
-23 24 -28 0
-23 -24 28 0
23 24 28 0
23 -24 -28 0
-22 -88 0
-22 -42 0
22 42 88 0
-21 42 88 0
-21 -42 -88 0
21 42 -88 0
21 -42 88 0
-20 22 0
-20 -39 0
20 -22 39 0
-19 -22 39 0
-19 22 -39 0
19 22 39 0
19 -22 -39 0
-18 20 0
-18 -36 0
18 -20 36 0
-17 -20 36 0
-17 20 -36 0
17 20 36 0
17 -20 -36 0
-16 18 0
-16 -33 0
16 -18 33 0
-15 -18 33 0
-15 18 -33 0
15 18 33 0
15 -18 -33 0
-14 16 0
-14 -30 0
14 -16 30 0
-13 -16 30 0
-13 16 -30 0
13 16 30 0
13 -16 -30 0
-12 14 0
-12 -27 0
12 -14 27 0
-11 -14 27 0
-11 14 -27 0
11 14 27 0
11 -14 -27 0
-10 12 0
-10 -24 0
10 -12 24 0
-9 -12 24 0
-9 12 -24 0
9 12 24 0
9 -12 -24 0
-8 58 0
-8 88 0
8 -58 -88 0
-58 88 0
58 -88 0
7 -42 -64 0
7 -8 -64 0
7 -8 -42 0
-7 42 64 0
-7 8 64 0
-7 8 42 0
7 -64 0
7 -42 0
7 -8 0
-8 -42 -64 0
6 -39 -51 0
6 -7 -51 0
6 -7 -39 0
-6 39 51 0
-6 7 51 0
-6 7 39 0
6 -51 0
6 -39 0
6 -7 0
-7 -39 -51 0
5 -36 -49 0
5 -6 -49 0
5 -6 -36 0
-5 36 49 0
-5 6 49 0
-5 6 36 0
-5 49 0
-5 36 0
-5 6 0
6 36 49 0
4 -33 -47 0
4 -5 -47 0
4 -5 -33 0
-4 33 47 0
-4 5 47 0
-4 5 33 0
-4 47 0
-4 33 0
-4 5 0
5 33 47 0
3 -30 -45 0
3 -4 -45 0
3 -4 -30 0
-3 30 45 0
-3 4 45 0
-3 4 30 0
3 -45 0
3 -30 0
3 -4 0
-4 -30 -45 0
2 -27 -82 0
2 -3 -82 0
2 -3 -27 0
-2 27 82 0
-2 3 82 0
-2 3 27 0
2 -82 0
2 -27 0
2 -3 0
-3 -27 -82 0
1 -24 -84 0
1 -2 -84 0
1 -2 -24 0
-1 24 84 0
-1 2 84 0
-1 2 24 0
1 -84 0
1 -24 0
1 -2 0
-2 -24 -84 0
-57 86 0
1 -57 0
-1 57 -86 0
1 -86 0
-1 86 0
65 -73 0
57 -73 0
-57 -65 73 0
57 -65 0
-57 65 0
-59 -73 0
-59 73 0
59 -73 0
